data/easy_10.dzn
num_nodi = 6;
ufficio_postale = 3;
dim_borsa = 102;
max_step = 12;
elenco_lettere = [2, 17, 0, 0, 0, 0];
distanze = [|0, 9, 25, 17, 19, 18
|11, 0, 7, 15, 17, 2
|10, 25, 0, 18, 22, 11
|24, 20, 5, 0, 4, 24
|10, 19, 2, 22, 0, 22
|22, 25, 20, 21, 23, 0
|];
