data/easy_10.lp
node(1..6).

ufficio_postale(3).

dim_borsa(102).

time(1..12).

lettere(1,2).
lettere(2,17).
lettere(3,0).
lettere(4,0).
lettere(5,0).
lettere(6,0).

costo_arco(1, 1, 0).
costo_arco(1, 2, 9).
costo_arco(1, 3, 25).
costo_arco(1, 4, 17).
costo_arco(1, 5, 19).
costo_arco(1, 6, 18).

costo_arco(2, 1, 11).
costo_arco(2, 2, 0).
costo_arco(2, 3, 7).
costo_arco(2, 4, 15).
costo_arco(2, 5, 17).
costo_arco(2, 6, 2).

costo_arco(3, 1, 10).
costo_arco(3, 2, 25).
costo_arco(3, 3, 0).
costo_arco(3, 4, 18).
costo_arco(3, 5, 22).
costo_arco(3, 6, 11).

costo_arco(4, 1, 24).
costo_arco(4, 2, 20).
costo_arco(4, 3, 5).
costo_arco(4, 4, 0).
costo_arco(4, 5, 4).
costo_arco(4, 6, 24).

costo_arco(5, 1, 10).
costo_arco(5, 2, 19).
costo_arco(5, 3, 2).
costo_arco(5, 4, 22).
costo_arco(5, 5, 0).
costo_arco(5, 6, 22).

costo_arco(6, 1, 22).
costo_arco(6, 2, 25).
costo_arco(6, 3, 20).
costo_arco(6, 4, 21).
costo_arco(6, 5, 23).
costo_arco(6, 6, 0).

